
Gurobi 9.5.1 (linux64) logging started Wed Mar  9 18:05:16 2022

Set parameter LogFile to value "../results/logs/log_2022_03_09_17_57.csv_6_35.log"
Set parameter Method to value 3
Gurobi Optimizer version 9.5.1 build v9.5.1rc2 (linux64)
Thread count: 8 physical cores, 8 logical processors, using up to 8 threads
Optimize a model with 1039 rows, 9882 columns and 16749 nonzeros
Model fingerprint: 0x58a79689
Variable types: 4941 continuous, 4941 integer (4941 binary)
Coefficient statistics:
  Matrix range     [1e+00, 6e+00]
  Objective range  [1e+00, 1e+00]
  Bounds range     [1e+00, 1e+00]
  RHS range        [1e+00, 4e+01]
Found heuristic solution: objective -0.0000000
Presolve removed 585 rows and 9150 columns
Presolve time: 0.02s
Presolved: 454 rows, 732 columns, 2692 nonzeros
Extracted 154 lazy constraints
Variable types: 413 continuous, 319 integer (317 binary)

Concurrent LP optimizer: primal simplex, dual simplex, and barrier
Showing barrier log only...

Root barrier log...

Ordering time: 0.00s

Barrier statistics:
 AA' NZ     : 5.250e+02
 Factor NZ  : 1.997e+03
 Factor Ops : 2.132e+04 (less than 1 second per iteration)
 Threads    : 1

                  Objective                Residual
Iter       Primal          Dual         Primal    Dual     Compl     Time
   0   5.43444747e+02  5.98157817e+03  1.29e+00 2.61e+00  9.17e+00     0s
   1   1.78563092e+02  2.55227463e+03  6.12e-02 1.16e+00  1.61e+00     0s
   2   2.04951375e+02  4.53162815e+02  0.00e+00 8.14e-02  1.52e-01     0s
   3   3.20179759e+02  3.42346561e+02  0.00e+00 2.08e-03  1.28e-02     0s
   4   3.29936363e+02  3.30112931e+02  0.00e+00 3.55e-15  1.01e-04     0s
   5   3.30000000e+02  3.30000000e+02  0.00e+00 1.78e-15  4.73e-10     0s

Barrier solved model in 5 iterations and 0.02 seconds (0.02 work units)
Optimal objective 3.30000000e+02


Solved with dual simplex

Root relaxation: objective 3.300000e+02, 137 iterations, 0.00 seconds (0.00 work units)

    Nodes    |    Current Node    |     Objective Bounds      |     Work
 Expl Unexpl |  Obj  Depth IntInf | Incumbent    BestBd   Gap | It/Node Time

     0     0  108.73910    0  156   -0.00000  108.73910      -     -    0s
     0     0   53.32591    0   70   -0.00000   53.32591      -     -    0s
     0     0   52.50899    0   49   -0.00000   52.50899      -     -    0s
     0     0   52.45247    0   58   -0.00000   52.45247      -     -    0s
     0     0   50.55457    0   44   -0.00000   50.55457      -     -    0s
     0     0   50.28088    0   65   -0.00000   50.28088      -     -    0s
     0     0   50.27378    0   50   -0.00000   50.27378      -     -    0s
     0     0   49.80945    0   30   -0.00000   49.80945      -     -    0s
     0     0   49.64678    0   36   -0.00000   49.64678      -     -    0s
     0     0   49.63887    0   32   -0.00000   49.63887      -     -    0s
     0     0   49.39911    0   49   -0.00000   49.39911      -     -    0s
     0     0   49.39911    0   49   -0.00000   49.39911      -     -    0s
H    0     0                      47.0000000   49.39911  5.10%     -    0s
     0     0   49.39911    0   98   47.00000   49.39911  5.10%     -    0s
     0     0   49.39911    0   46   47.00000   49.39911  5.10%     -    0s
     0     0   49.39911    0   24   47.00000   49.39911  5.10%     -    0s
     0     0   49.18833    0   43   47.00000   49.18833  4.66%     -    0s
     0     0   49.16775    0   33   47.00000   49.16775  4.61%     -    0s
     0     0   49.14581    0   33   47.00000   49.14581  4.57%     -    0s
     0     0   49.14418    0   31   47.00000   49.14418  4.56%     -    0s
     0     0   48.98653    0   43   47.00000   48.98653  4.23%     -    0s
     0     0   48.90929    0   27   47.00000   48.90929  4.06%     -    0s
     0     0   48.88356    0   36   47.00000   48.88356  4.01%     -    0s
     0     0   48.88023    0   36   47.00000   48.88023  4.00%     -    0s
     0     0   48.80529    0   24   47.00000   48.80529  3.84%     -    0s
     0     0   48.79605    0   26   47.00000   48.79605  3.82%     -    0s
     0     0   48.76931    0   26   47.00000   48.76931  3.76%     -    0s
     0     0   48.71574    0   20   47.00000   48.71574  3.65%     -    0s
     0     0   48.71574    0   19   47.00000   48.71574  3.65%     -    0s
     0     0   48.71574    0   69   47.00000   48.71574  3.65%     -    0s
     0     0   48.71574    0   28   47.00000   48.71574  3.65%     -    0s
     0     0   48.71574    0   17   47.00000   48.71574  3.65%     -    0s
     0     0   48.71574    0   27   47.00000   48.71574  3.65%     -    0s
     0     0   48.71574    0   52   47.00000   48.71574  3.65%     -    0s
     0     0   48.71574    0   25   47.00000   48.71574  3.65%     -    0s
     0     0   48.71574    0   25   47.00000   48.71574  3.65%     -    0s
     0     0   48.71022    0   25   47.00000   48.71022  3.64%     -    0s
     0     0   48.66855    0   26   47.00000   48.66855  3.55%     -    0s
     0     0   48.66855    0   24   47.00000   48.66855  3.55%     -    0s
     0     0   48.62725    0   16   47.00000   48.62725  3.46%     -    0s
     0     0   48.62548    0   21   47.00000   48.62548  3.46%     -    0s
     0     0   48.55556    0   21   47.00000   48.55556  3.31%     -    0s
     0     0   48.55409    0   10   47.00000   48.55409  3.31%     -    0s
     0     0   48.55409    0   10   47.00000   48.55409  3.31%     -    0s
     0     2   48.55409    0   10   47.00000   48.55409  3.31%     -    0s

Cutting planes:
  Gomory: 20
  Lift-and-project: 9
  Implied bound: 1
  MIR: 72
  RLT: 7

Explored 12 nodes (2533 simplex iterations) in 0.29 seconds (0.17 work units)
Thread count was 8 (of 8 available processors)

Solution count 2: 47 -0 

Optimal solution found (tolerance 1.00e-04)
Best objective 4.700000000000e+01, best bound 4.700000000000e+01, gap 0.0000%
